RT is False
Default write of storage_offers_DA.csv just to have a file (but constraint should be inactive)
Reading model...
...model read.
creating competitive generators file...
...competitive generators recorded.
Loading data...
.. day-ahead data with real-time VRE data read.
Compiling instance...
...instance created.
Creating Offer Mitigation (model will solve as dispatch if TRUE)...
Solving...

Welcome to IBM(R) ILOG(R) CPLEX(R) Interactive Optimizer 12.9.0.0
  with Simplex, Mixed Integer & Barrier Optimizers
5725-A06 5725-A29 5724-Y48 5724-Y49 5724-Y54 5724-Y55 5655-Y21
Copyright IBM Corp. 1988, 2019.  All Rights Reserved.

Type 'help' for a list of available commands.
Type 'help' followed by a command name for more
information on commands.

CPLEX> Logfile 'cplex.log' closed.
Logfile 'C:\Users\llavin\Desktop\test919\logs\tmpqvijwyi6.cplex.log' open.
CPLEX> New value for parallel optimization mode: -1
CPLEX> New value for mixed integer optimality gap tolerance: 0.01
CPLEX> New value for integrality tolerance: 1e-09
CPLEX> New value for feasibility tolerance: 0.01
CPLEX> New value for deterministic time limit in ticks: 75000
CPLEX> Problem 'C:\Users\llavin\Desktop\test919\logs\tmpoj9vye_f.pyomo.lp' read.
Read time = 0.06 sec. (3.04 ticks)
CPLEX> Problem name         : C:\Users\llavin\Desktop\test919\logs\tmpoj9vye_f.pyomo.lp
Objective sense      : Minimize
Variables            :   26081  [Nneg: 1,  Box: 21616,  Free: 4464]
Objective nonzeros   :    2496
Linear constraints   :   27515  [Less: 14006,  Greater: 4416,  Equal: 9093]
  Nonzeros           :   89219
  RHS nonzeros       :   12271

Variables            : Min LB: -5000.000        Max UB: 1000000.       
Objective nonzeros   : Min   : 15.73158         Max   : 124.0997       
Linear constraints   :
  Nonzeros           : Min   : 0.8500000        Max   : 3000.000       
  RHS nonzeros       : Min   : 0.5583333        Max   : 5000.000       
CPLEX> CPXPARAM_Parallel                                -1
CPXPARAM_Simplex_Tolerances_Feasibility          0.01
CPXPARAM_DetTimeLimit                            75000
CPXPARAM_MIP_Tolerances_MIPGap                   0.01
CPXPARAM_MIP_Tolerances_Integrality              1.0000000000000001e-09
Parallel mode: opportunistic, using up to 32 threads for concurrent optimization.
Tried aggregator 1 time.
LP Presolve eliminated 21377 rows and 15487 columns.
Aggregator did 745 substitutions.
Reduced LP has 5393 rows, 9849 columns, and 31790 nonzeros.
Presolve time = 0.05 sec. (30.19 ticks)
Symmetry aggregator did 5563 additional substitutions.

Iteration log . . .
Iteration:     1   Dual objective     =             0.000000
Perturbation started.
Iteration:   101   Dual objective     =             0.000000
Iteration:   338   Dual objective     =             1.262346
Iteration:   613   Dual objective     =             1.963822
Iteration:   869   Dual objective     =             2.111137
Iteration:  1063   Dual objective     =             2.227868
Iteration:  1341   Dual objective     =             2.280797
Iteration:  1592   Dual objective     =             2.311418
Iteration:  1808   Dual objective     =        162053.853121
Iteration:  2019   Dual objective     =        491671.616223
Iteration:  2212   Dual objective     =        523847.235423
Iteration:  2410   Dual objective     =        536868.919872
Iteration:  2689   Dual objective     =        538781.556061
Removing perturbation.

Dual crossover.
  Dual:  Fixing 9 variables.
Using devex.

Primal simplex solved model.


Primal simplex - Optimal:  Objective =  5.3933988132e+05
Solution time =    0.17 sec.  Iterations = 1751 (1047)
Deterministic time = 82.54 ticks  (479.87 ticks/sec)

CPLEX> Solution written to file 'C:\Users\llavin\Desktop\test919\logs\tmpxk0da25m.cplex.sol'.
CPLEX> Exporting results... 
...storage offer mitigation file created
Converting model to MPEC...
...converted
NOTE: initial MIP solve with only storage competitive to get feasible solution
Solving...

Welcome to IBM(R) ILOG(R) CPLEX(R) Interactive Optimizer 12.9.0.0
  with Simplex, Mixed Integer & Barrier Optimizers
5725-A06 5725-A29 5724-Y48 5724-Y49 5724-Y54 5724-Y55 5655-Y21
Copyright IBM Corp. 1988, 2019.  All Rights Reserved.

Type 'help' for a list of available commands.
Type 'help' followed by a command name for more
information on commands.

CPLEX> Logfile 'cplex.log' closed.
Logfile 'C:\Users\llavin\Desktop\test919\logs\tmp1uj9k4nn.cplex.log' open.
CPLEX> New value for parallel optimization mode: -1
CPLEX> New value for mixed integer optimality gap tolerance: 0.01
CPLEX> New value for integrality tolerance: 1e-09
CPLEX> New value for feasibility tolerance: 0.01
CPLEX> New value for deterministic time limit in ticks: 75000
CPLEX> Problem 'C:\Users\llavin\Desktop\test919\logs\tmpiumt7zbx.pyomo.lp' read.
Read time = 0.23 sec. (14.78 ticks)
CPLEX> Problem name         : C:\Users\llavin\Desktop\test919\logs\tmpiumt7zbx.pyomo.lp
Objective sense      : Maximize
Variables            :   53805  [Nneg: 1,  Box: 22000,  Free: 4464,
                                 Binary: 27340]
Objective nonzeros   :    9029
Linear constraints   :  123205  [Less: 41346,  Greater: 59096,  Equal: 22763]
  Nonzeros           :  291753
  RHS nonzeros       :   67491

Variables            : Min LB: -5000.000        Max UB: 1000000.       
Objective nonzeros   : Min   : 0.5583333        Max   : 2500.000       
Linear constraints   :
  Nonzeros           : Min   : 0.5583333        Max   : 1000000.       
  RHS nonzeros       : Min   : 0.5583333        Max   : 1000000.       
CPLEX> CPXPARAM_Parallel                                -1
CPXPARAM_Simplex_Tolerances_Feasibility          0.01
CPXPARAM_DetTimeLimit                            75000
CPXPARAM_MIP_Tolerances_MIPGap                   0.01
CPXPARAM_MIP_Tolerances_Integrality              1.0000000000000001e-09
Tried aggregator 3 times.
MIP Presolve eliminated 88736 rows and 19060 columns.
MIP Presolve added 3369 rows and 0 columns.
MIP Presolve modified 24815 coefficients.
Aggregator did 12960 substitutions.
Reduced MIP has 24878 rows, 21229 columns, and 70977 nonzeros.
Reduced MIP has 8385 binaries, 0 generals, 0 SOSs, and 0 indicators.
Presolve time = 0.30 sec. (175.93 ticks)
Probing fixed 378 vars, tightened 2835 bounds.
Probing time = 1.19 sec. (876.21 ticks)
Tried aggregator 2 times.
MIP Presolve eliminated 857 rows and 757 columns.
MIP Presolve modified 2213 coefficients.
Aggregator did 36 substitutions.
Reduced MIP has 23985 rows, 20436 columns, and 68393 nonzeros.
Reduced MIP has 8007 binaries, 0 generals, 0 SOSs, and 0 indicators.
Presolve time = 0.11 sec. (68.75 ticks)
Probing time = 0.05 sec. (16.15 ticks)
Clique table members: 6430.
MIP emphasis: balance optimality and feasibility.
MIP search method: dynamic search.
Parallel mode: opportunistic, using up to 32 threads.
Root relaxation solution time = 0.39 sec. (295.06 ticks)

        Nodes                                         Cuts/
   Node  Left     Objective  IInf  Best Integer    Best Bound    ItCnt     Gap

      0     0      -15.5665  2175                    -15.5665     6928         
      0     0      -15.5665     6                     Cuts: 3     6930         
      0     0      -15.5665     5                 Flowcuts: 4     6932         
      0     3    infeasible                          -29.1325     6951         
Elapsed time = 7.55 sec. (4558.52 ticks, tree = 0.02 MB, solutions = 0)
*   300    92      integral     0    -1718.6135      -29.1325     7274   98.30%
    376    77      -29.2416     2    -1718.6135      -29.1325     9346   98.30%
    730   188      -67.9591     1    -1718.6135      -29.1325    10142   98.30%
   1043   371      -29.8402     2    -1718.6135      -29.1325    10791   98.30%
   1351   565      -40.8298     4     -256.0912      -29.1325    11943   88.62%
   1736   538      -83.4143     6     -256.0912      -29.2416    12410   88.58%
   2121   772      -67.3414     4     -256.0912      -29.2416    14817   88.58%
   2522   735     -125.8603     4     -256.0912      -29.2416    14709   88.58%
   2957  1040        cutoff           -256.0912      -29.2416    16198   88.58%
   3324  1210      -43.0044     3     -256.0912      -29.2416    17108   88.58%
   5135  1858        cutoff           -176.3988      -29.8402    21757   83.08%
Elapsed time = 23.89 sec. (7663.31 ticks, tree = 9.94 MB, solutions = 4)
   6789  2883      -61.5340     6     -176.3988      -29.8402    27084   83.08%
   8316  3488      -87.0091     1     -171.8203      -29.8402    31211   82.63%
   9494  3685     -160.1663     1     -171.8203      -29.8402    32655   82.63%
   9631  4842        cutoff           -171.8203      -29.8402    45369   82.63%
  11815   128      -43.2255    11      -62.2108      -42.4542    50928   31.76%

Cover cuts applied:  10
Implied bound cuts applied:  7
Flow cuts applied:  22
Mixed integer rounding cuts applied:  13
Zero-half cuts applied:  3
Gomory fractional cuts applied:  28

Root node processing (before b&c):
  Real time             =    6.91 sec. (4560.40 ticks)
Parallel b&c, 32 threads:
  Real time             =   33.81 sec. (9580.23 ticks)
  Sync time (average)   =    1.66 sec.
  Wait time (average)   =    0.08 sec.
                          ------------
Total (root+branch&cut) =   40.72 sec. (14140.63 ticks)

Solution pool: 16 solutions saved.

MIP - Integer optimal, tolerance (0.01/1e-06):  Objective = -6.2210848118e+01
Current MIP best bound = -6.1704293637e+01 (gap = 0.506554, 0.81%)
Solution time =   40.75 sec.  Iterations = 54484  Nodes = 11877 (1)
Deterministic time = 14140.78 ticks  (347.01 ticks/sec)

CPLEX> Incumbent solution written to file 'C:\Users\llavin\Desktop\test919\logs\tmpi_n1fv94.cplex.sol'.
CPLEX> NOTE: no warmstart specified for MIP iteration, default behavior is true
NOTE: resolving with all competitive generators using storage-only solution to warmstart
Solving...

Welcome to IBM(R) ILOG(R) CPLEX(R) Interactive Optimizer 12.9.0.0
  with Simplex, Mixed Integer & Barrier Optimizers
5725-A06 5725-A29 5724-Y48 5724-Y49 5724-Y54 5724-Y55 5655-Y21
Copyright IBM Corp. 1988, 2019.  All Rights Reserved.

Type 'help' for a list of available commands.
Type 'help' followed by a command name for more
information on commands.

CPLEX> Logfile 'cplex.log' closed.
Logfile 'C:\Users\llavin\Desktop\test919\logs\tmpkpyifuye.cplex.log' open.
CPLEX> New value for parallel optimization mode: -1
CPLEX> New value for mixed integer optimality gap tolerance: 0.01
CPLEX> New value for integrality tolerance: 1e-09
CPLEX> New value for feasibility tolerance: 0.01
CPLEX> New value for deterministic time limit in ticks: 75000
CPLEX> Problem 'C:\Users\llavin\Desktop\test919\logs\tmpqnooxack.pyomo.lp' read.
Read time = 0.23 sec. (14.81 ticks)
CPLEX> MIP start file 'C:\Users\llavin\Desktop\test919\logs\tmpwcbmd3v1.cplex.mst' read.
CPLEX> Problem name         : C:\Users\llavin\Desktop\test919\logs\tmpqnooxack.pyomo.lp
Objective sense      : Maximize
Variables            :   54525  [Nneg: 1,  Box: 22720,  Free: 4464,
                                 Binary: 27340]
Objective nonzeros   :    9725
Linear constraints   :  123205  [Less: 41346,  Greater: 59096,  Equal: 22763]
  Nonzeros           :  291753
  RHS nonzeros       :   67491

Variables            : Min LB: -5000.000        Max UB: 1000000.       
Objective nonzeros   : Min   : 0.5583333        Max   : 2500.000       
Linear constraints   :
  Nonzeros           : Min   : 0.5583333        Max   : 1000000.       
  RHS nonzeros       : Min   : 0.5583333        Max   : 1000000.       
CPLEX> CPXPARAM_Parallel                                -1
CPXPARAM_Simplex_Tolerances_Feasibility          0.01
CPXPARAM_DetTimeLimit                            75000
CPXPARAM_MIP_Tolerances_MIPGap                   0.01
CPXPARAM_MIP_Tolerances_Integrality              1.0000000000000001e-09
Warning:  No solution found from 1 MIP starts.
Retaining values of one MIP start for possible repair.
Tried aggregator 3 times.
MIP Presolve eliminated 88736 rows and 19780 columns.
MIP Presolve added 3369 rows and 0 columns.
MIP Presolve modified 24815 coefficients.
Aggregator did 12960 substitutions.
Reduced MIP has 24878 rows, 21229 columns, and 70977 nonzeros.
Reduced MIP has 8385 binaries, 0 generals, 0 SOSs, and 0 indicators.
Presolve time = 0.30 sec. (176.30 ticks)
Probing fixed 378 vars, tightened 2835 bounds.
Probing time = 1.19 sec. (876.21 ticks)
Tried aggregator 2 times.
MIP Presolve eliminated 857 rows and 757 columns.
MIP Presolve modified 2213 coefficients.
Aggregator did 36 substitutions.
Reduced MIP has 23985 rows, 20436 columns, and 68393 nonzeros.
Reduced MIP has 8007 binaries, 0 generals, 0 SOSs, and 0 indicators.
Presolve time = 0.11 sec. (68.76 ticks)
Probing time = 0.03 sec. (16.15 ticks)
Clique table members: 6430.
MIP emphasis: balance optimality and feasibility.
MIP search method: dynamic search.
Parallel mode: opportunistic, using up to 32 threads.
Root relaxation solution time = 0.44 sec. (324.82 ticks)

        Nodes                                         Cuts/
   Node  Left     Objective  IInf  Best Integer    Best Bound    ItCnt     Gap

      0     0   112845.4925  2214                 112845.4925     7354         
      0     0   112504.1631   645                   Cuts: 935     7833         
      0     0   112414.4358   424                   Cuts: 714     8126         
      0     0   112385.0060   353                   Cuts: 267     8230         
      0     0   112384.2429   339                    Cuts: 72     8270         
      0     0   112381.6743   336                    Cuts: 21     8281         
      0     0   112380.9633   336                Flowcuts: 13     8283         
Repair heuristic found nothing.
      0     2   112380.9633   336                    Cuts: 25     8283         
Elapsed time = 11.55 sec. (6909.90 ticks, tree = 0.02 MB, solutions = 0)
    352   112   107390.4056   270                 112109.7702     9974         
    963   144   111530.9137   290                 112109.7702    10242         
   1528   879   109317.5154   264                 112109.7702    15367         
   2202   874   110918.1711   253                 112109.7702    15301         
   2964  1564    93991.9248   274                 112109.7702    19592         
   3888  2361    93818.7367   250                 112109.7702    22672         
   4986  3237   110795.3006   249                 112109.7702    26884         
   6181  3765   105925.9194   190                 112109.7702    28566         
   7146  4969    92667.0456   229                 112109.7702    31247         
*  7773+ 4987                       106464.9818   112105.6803             5.30%
Elapsed time = 26.33 sec. (9284.93 ticks, tree = 39.71 MB, solutions = 2)
  10000  5075    infeasible         110568.9683   112105.6803    43552    1.39%
  12172  2846   111742.4997   273   110568.9683   112105.6803    52563    1.39%
  12250  4942        cutoff         110568.9683   112105.6803    66850    1.39%
  13722   153   111543.7149    72   110568.9683   112105.6803    68419    1.39%
  15882  1685   110805.0327   115   110568.9683   112105.6803    77073    1.39%
  18566  1564   111673.1108    66   110568.9683   112105.6803    75619    1.39%
  21282  3834   111075.2301    24   110568.9683   112105.6803    91339    1.39%
  23043  4366   111694.2327   142   110568.9683   112105.6803    95032    1.39%
  23795  8841   110832.6607    64   110568.9683   112105.6803   123556    1.39%
  25322  8548   110608.7883    52   110568.9683   112105.6803   122067    1.39%
Elapsed time = 75.20 sec. (23368.03 ticks, tree = 103.11 MB, solutions = 8)
  28185  9552   110603.9519   102   110568.9683   112105.6803   127222    1.39%
  31257  9102   111504.8955    53   110568.9683   112105.6803   125061    1.39%
  33854 10120   111507.2709   113   110568.9683   112105.6803   130552    1.39%
  36413 17717   111741.4876   135   110568.9683   112105.6803   176846    1.39%
  38930 14886   111017.8214   119   110568.9683   112105.6803   159331    1.39%
  41591 14886   111555.9896    48   110568.9683   112105.6803   158473    1.39%
  43989 20474   111011.8237   126   110568.9683   112105.6803   190716    1.39%
  46615 17277   110570.3167    41   110568.9683   112105.6803   172962    1.39%
  49112 21022   111262.7350    44   110568.9683   112105.6803   192643    1.39%
  51168 18156   111635.1910    30   110568.9683   112105.6803   178349    1.39%
Elapsed time = 124.02 sec. (32907.68 ticks, tree = 221.42 MB, solutions = 8)
  53049 17882   111483.5649    30   110568.9683   112105.6803   176931    1.39%
  54806 22625   111333.1477   127   110568.9683   112105.6803   200088    1.39%
  56526 19532   110992.0038    79   110568.9683   112105.6803   185241    1.39%
  58292 20148   111626.4853    45   110568.9683   112105.6803   187111    1.39%
  60039 20223   111584.2370    36   110568.9683   112105.6803   187570    1.39%
  61752 21184   111220.2814    69   110568.9683   112105.6803   193478    1.39%
  63400 25599   111465.4706    55   110568.9683   112105.6803   215019    1.39%
  64911 34079   111308.0156    27   110568.9683   112105.6803   261663    1.39%
  66428 21013   111748.9109   151   110568.9683   112105.6803   193156    1.39%
  67813 26532   110572.7409    47   110568.9683   112105.6803   218849    1.39%
Elapsed time = 157.70 sec. (42452.64 ticks, tree = 325.64 MB, solutions = 8)
  69225 22319   110611.6990   111   110568.9683   112105.6803   199416    1.39%
  70507 32439   111413.6620   106   110568.9683   112105.6803   250761    1.39%
  71790 30402   110854.2722    91   110568.9683   112105.6803   241032    1.39%
  72946 24177   111464.1028    80   110568.9683   112105.6803   206388    1.39%
  74073 31321   110576.5323    54   110568.9683   112105.6803   247962    1.39%
  75020 31764   111306.1506    54   110568.9683   112105.6803   247150    1.39%
  75846 25119   111647.9664   137   110568.9683   112105.6803   210459    1.39%
  76501 32953   111323.1442    61   110568.9683   112105.6803   253062    1.39%
  76955 30912   111473.2044    81   110568.9683   112105.6803   243828    1.39%
  77459 31012   111411.8522    56   110568.9683   112105.6803   244258    1.39%
Elapsed time = 170.03 sec. (51998.79 ticks, tree = 380.58 MB, solutions = 8)
  78014 31957   110630.7107    21   110568.9683   112105.6803   249926    1.39%
  78490 32740   111655.7169   131   110568.9683   112105.6803   251652    1.39%
  79143 32454   110892.3536    50   110568.9683   112105.6803   249805    1.39%
  79753 27472   111438.1680    22   110568.9683   112105.6803   225119    1.39%
  80270 30683   111295.3683    55   110568.9683   112105.6803   244404    1.39%
  80981 30770   111184.9480    79   110568.9683   112105.6803   244939    1.39%
  81556 33279   111036.5378    63   110568.9683   112105.6803   253508    1.39%
  82041 32429   111487.3391    36   110568.9683   112105.6803   252867    1.39%
  82402 34383   110619.6677    53   110568.9683   112105.6803   263952    1.39%
  82604 34491   111412.7737   123   110568.9683   112105.6803   264277    1.39%
Elapsed time = 177.38 sec. (61549.27 ticks, tree = 424.93 MB, solutions = 8)
  82783 34607   110760.4437    44   110568.9683   112105.6803   264822    1.39%
  82897 34671   111505.5334    24   110568.9683   112105.6803   265160    1.39%
  82980 34699   111505.5334    24   110568.9683   112105.6803   265504    1.39%
  83017 32594        cutoff         110568.9683   112105.6803   254481    1.39%
  83041 33698        cutoff         110568.9683   112105.6803   260707    1.39%
  83074 34164        cutoff         110568.9683   112105.6803   263878    1.39%
  83104 32644        cutoff         110568.9683   112105.6803   255230    1.39%
  83130 33700        cutoff         110568.9683   112105.6803   260795    1.39%
  83256 34167   111258.6703    23   110568.9683   112105.6803   263929    1.39%
  83449 34905   111045.8216   111   110568.9683   112105.6803   266947    1.39%
Elapsed time = 177.38 sec. (71468.71 ticks, tree = 430.03 MB, solutions = 8)
  83600 34995   111731.5029   129   110568.9683   112105.6803   267189    1.39%
  83764 34783   110856.0625    21   110568.9683   112105.6803   266329    1.39%
  83770 34782        cutoff         110568.9683   112105.6803   266330    1.39%

GUB cover cuts applied:  3
Clique cuts applied:  26
Cover cuts applied:  8
Implied bound cuts applied:  25
Flow cuts applied:  490
Mixed integer rounding cuts applied:  36
Gomory fractional cuts applied:  82

Root node processing (before b&c):
  Real time             =    9.69 sec. (6867.65 ticks)
Parallel b&c, 32 threads:
  Real time             =  168.30 sec. (68408.67 ticks)
  Sync time (average)   =    2.90 sec.
  Wait time (average)   =    0.24 sec.
                          ------------
Total (root+branch&cut) =  177.98 sec. (75276.31 ticks)

Solution pool: 8 solutions saved.

MIP - Deterministic time limit exceeded, integer feasible:  Objective =  1.1056896827e+05
Current MIP best bound =  1.1210568031e+05 (gap = 1536.71, 1.39%)
Solution time =  178.06 sec.  Iterations = 385062  Nodes = 83774 (56290)
Deterministic time = 75276.47 ticks  (422.75 ticks/sec)

CPLEX> Incumbent solution written to file 'C:\Users\llavin\Desktop\test919\logs\tmpps2r4hn0.cplex.sol'.
CPLEX> Exporting results... 
